 &CONTROL
        title='ceo2'
        calculation='cp'
        restart_mode='from_scratch'
    ndr = 61,
    ndw = -1,
    nstep  = 10,
    iprint = 5,
    isave  = 100000,
    !tstress = .TRUE.,
    !tprnfor = .TRUE.,
    dt    = 1.0d0,
    etot_conv_thr = 1.d-8,
    prefix = 'sto',
    pseudo_dir='./',
    outdir='./OUT',
/ 
 &SYSTEM
       ibrav=14
        celldm(1)=38.502799
        celldm(2)=1.065
        celldm(3)=1.375
    celldm(4) = 0.0,
    celldm(5) = 0.0,
    celldm(6) = 0.0,
       nat=792
        ntyp=2
    ecutrho = 200.0,
    ecutwfc = 30.0,
    ecfixed = 25.0,
    qcutz = 25.0,
    q2sigma = 5.0,
nr1b=16, nr2b=16, nr3b=16
/
 &ELECTRONS
    emass = 800.d0,
    emass_cutoff = 2.5d0,
    orthogonalization = 'ortho',
    ortho_eps = 2.d-7,
    ortho_max = 100,
    electron_dynamics = 'damp',
    electron_damping = 0.2,
    electron_velocities = 'zero',
/
 &IONS
    ion_dynamics = 'none',
    ion_velocities = 'zero',
    ion_radius(1) = 0.8d0,
    ion_radius(2) = 0.5d0,
/
 &CELL
cell_dynamics = 'none',
/
ATOMIC_SPECIES
Zr  91.00 Zr.pbe-nsp-van.UPF
O   16.00 O.pbe-van_bm.UPF
ATOMIC_POSITIONS (angstrom)
O    11.406416893        12.655405045         4.916680813
O    11.406416893        16.271930695         4.916680813
O    11.406416893         1.805826187         4.916680813
O    11.406416893        19.888456345         4.916680813
O    11.406416893         5.422352791         4.916680813
O    11.406416893         9.038878441         4.916680813
O    1.219019294        12.655405045         4.916680813
O    1.219019294        16.271930695         4.916680813
O     1.219019294         1.805826187         4.916680813
O    1.219019294        19.888456345         4.916680813
O    1.219019294         5.422352791         4.916680813
O    1.219019294         9.038878441         4.916680813
O    14.062078476        12.655405045         4.916680813
O    14.062078476        16.271930695         4.916680813
O    14.062078476         1.805826187         4.916680813
O    14.062078476        19.888456345         4.916680813
O    14.062078476         5.422352791         4.916680813
O    14.062078476         9.038878441         4.916680813
O    16.500116348        12.655405045         4.916680813
O    16.500116348        16.271930695         4.916680813
O    16.500116348         1.805826187         4.916680813
O    16.500116348        19.888456345         4.916680813
O    16.500116348         5.422352791         4.916680813
O    16.500116348         9.038878441         4.916680813
O    19.155776978        12.655405045         4.916680813
O    19.155776978        16.271930695         4.916680813
O    19.155776978         1.805826187         4.916680813
O    19.155776978        19.888456345         4.916680813
O    19.155776978         5.422352791         4.916680813
O    19.155776978         9.038878441         4.916680813
O     3.874680519        12.655405045         4.916680813
O     3.874680519        16.271930695         4.916680813
O     3.874680519         1.805826187         4.916680813
O     3.874680519        19.888456345         4.916680813
O     3.874680519         5.422352791         4.916680813
O     3.874680519         9.038878441         4.916680813
O    6.312718391        12.655405045         4.916680813
O     6.312718391        16.271930695         4.916680813
O    6.312718391         1.805826187         4.916680813
O     6.312718391        19.888456345         4.916680813
O    6.312718391         5.422352791         4.916680813
O    6.312718391         9.038878441         4.916680813
O     8.968379974        12.655405045         4.916680813
O     8.968379974        16.271930695         4.916680813
O     8.968379974         1.805826187         4.916680813
O     8.968379974        19.888456345         4.916680813
O     8.968379974         5.422352791         4.916680813
O     8.968379974         9.038878441         4.916680813
Zr     0.000000000        10.842247963         5.183498383
Zr     0.000000000        14.458776474         5.183498383
Zr     0.000000000        18.075302124         5.183498383
Zr     0.000000000        21.691827774         5.183498383
Zr     0.000000000         3.609197140         5.183498383
Zr     0.000000000         7.225722790         5.183498383
Zr    10.187397957        10.842247963         5.183498383
Zr    10.187397957        14.458776474         5.183498383
Zr    10.187397957        18.075302124         5.183498383
Zr    10.187397957        21.691827774         5.183498383
Zr    10.187397957         3.609197140         5.183498383
Zr    10.187397957         7.225722790         5.183498383
Zr    15.281097412        10.842247963         5.183498383
Zr    15.281097412        14.458776474         5.183498383
Zr    15.281097412        18.075302124         5.183498383
Zr    15.281097412        21.691827774         5.183498383
Zr    15.281097412         3.609197140         5.183498383
Zr    15.281097412         7.225722790         5.183498383
Zr     5.093698978        10.842247963         5.183498383
Zr     5.093698978        14.458776474         5.183498383
Zr     5.093698978        18.075302124         5.183498383
Zr     5.093698978        21.691827774         5.183498383
Zr     5.093698978         3.609197140         5.183498383
Zr     5.093698978         7.225722790         5.183498383
Zr    12.734247208        12.655443192         6.526304245
Zr    12.734247208        16.271970749         6.526304245
Zr    12.734247208         1.805864692         6.526304245
Zr    12.734247208        19.888496399         6.526304245
Zr    12.734247208         5.422390938         6.526304245
Zr    12.734247208         9.038917542         6.526304245
Zr    17.827945709        12.655443192         6.526304245
Zr    17.827945709        16.271970749         6.526304245
Zr    17.827945709         1.805864692         6.526304245
Zr    17.827945709        19.888496399         6.526304245
Zr    17.827945709         5.422390938         6.526304245
Zr    17.827945709         9.038917542         6.526304245
Zr     2.546849728        12.655443192         6.526304245
Zr     2.546849728        16.271970749         6.526304245
Zr     2.546849728         1.805864692         6.526304245
Zr     2.546849728        19.888496399         6.526304245
Zr     2.546849728         5.422390938         6.526304245
Zr     2.546849728         9.038917542         6.526304245
Zr     7.640548706        12.655443192         6.526304245
Zr     7.640548706        16.271970749         6.526304245
Zr     7.640548706         1.805864692         6.526304245
Zr     7.640548706        19.888496399         6.526304245
Zr     7.640548706         5.422390938         6.526304245
Zr     7.640548706         9.038917542         6.526304245
O    11.480309486        10.846130371         6.730029106
O    11.480309486        14.462656021         6.730029106
O    11.480309486        18.079183578         6.730029106
O    11.480309486        21.695709229         6.730029106
O    11.480309486         3.613077402         6.730029106
O    11.480309486         7.229605198         6.730029106
O     1.292911887        10.846130371         6.730029106
O     1.292911887        14.462656021         6.730029106
O     1.292911887        18.079183578         6.730029106
O     1.292911887        21.695709229         6.730029106
O     1.292911887         3.613077402         6.730029106
O     1.292911887         7.229605198         6.730029106
O    13.988185883        10.846130371         6.730029106
O    13.988185883        14.462656021         6.730029106
O    13.988185883        18.079183578         6.730029106
O    13.988185883        21.695709229         6.730029106
O    13.988185883         3.613077402         6.730029106
O    13.988185883         7.229605198         6.730029106
O    16.574008942        10.846130371         6.730029106
O    16.574008942        14.462656021         6.730029106
O    16.574008942        18.079183578         6.730029106
O    16.574008942        21.695709229         6.730029106
O    16.574008942         3.613077402         6.730029106
O    16.574008942         7.229605198         6.730029106
O    19.081884384        10.846130371         6.730029106
O    19.081884384        14.462656021         6.730029106
O    19.081884384        18.079183578         6.730029106
O    19.081884384        21.695709229         6.730029106
O    19.081884384         3.613077402         6.730029106
O    19.081884384         7.229605198         6.730029106
O     3.800787687        10.846130371         6.730029106
O     3.800787687        14.462656021         6.730029106
O     3.800787687        18.079183578         6.730029106
O     3.800787687        21.695709229         6.730029106
O     3.800787687         3.613077402         6.730029106
O     3.800787687         7.229605198         6.730029106
O     6.386610508        10.846130371         6.730029106
O     6.386610508        14.462656021         6.730029106
O     6.386610508        18.079183578         6.730029106
O     6.386610508        21.695709229         6.730029106
O     6.386610508         3.613077402         6.730029106
O     6.386610508         7.229605198         6.730029106
O     8.894486427        10.846130371         6.730029106
O     8.894486427        14.462656021         6.730029106
O     8.894486427        18.079183578         6.730029106
O     8.894486427        21.695709229         6.730029106
O     8.894486427         3.613077402         6.730029106
O     8.894486427         7.229605198         6.730029106
O    11.450274467        12.654367447         8.508111000
O    11.450274467        16.270895004         8.508111000
O    11.450274467         1.804788589         8.508111000
O    11.450274467        19.887420654         8.508111000
O    11.450274467         5.421314716         8.508111000
O    11.450274467         9.037841797         8.508111000
O     1.262876511        12.654367447         8.508111000
O     1.262876511        16.270895004         8.508111000
O     1.262876511         1.804788589         8.508111000
O     1.262876511        19.887420654         8.508111000
O     1.262876511         5.421314716         8.508111000
O     1.262876511         9.037841797         8.508111000
O    14.018220901        12.654367447         8.508111000
O    14.018220901        16.270895004         8.508111000
O    14.018220901         1.804788589         8.508111000
O    14.018220901        19.887420654         8.508111000
O    14.018220901         5.421314716         8.508111000
O    14.018220901         9.037841797         8.508111000
O    16.543973923        12.654367447         8.508111000
O    16.543973923        16.270895004         8.508111000
O    16.543973923         1.804788589         8.508111000
O    16.543973923        19.887420654         8.508111000
O    16.543973923         5.421314716         8.508111000
O    16.543973923         9.037841797         8.508111000
O    19.111919403        12.654367447         8.508111000
O    19.111919403        16.270895004         8.508111000
O    19.111919403         1.804788589         8.508111000
O    19.111919403        19.887420654         8.508111000
O    19.111919403         5.421314716         8.508111000
O    19.111919403         9.037841797         8.508111000
O     3.830823183        12.654367447         8.508111000
O     3.830823183        16.270895004         8.508111000
O     3.830823183         1.804788589         8.508111000
O     3.830823183        19.887420654         8.508111000
O     3.830823183         5.421314716         8.508111000
O     3.830823183         9.037841797         8.508111000
O     6.356575966        12.654367447         8.508111000
O     6.356575966        16.270895004         8.508111000
O     6.356575966         1.804788589         8.508111000
O     6.356575966        19.887420654         8.508111000
O     6.356575966         5.421314716         8.508111000
O     6.356575966         9.037841797         8.508111000
O     8.924521446        12.654367447         8.508111000
O     8.924521446        16.270895004         8.508111000
O     8.924521446         1.804788589         8.508111000
O     8.924521446        19.887420654         8.508111000
O     8.924521446         5.421314716         8.508111000
O     8.924521446         9.037841797         8.508111000
Zr     0.000000000        10.843060493         8.605128288
Zr     0.000000000        14.459588051         8.605128288
Zr     0.000000000        18.076110840         8.605128288
Zr     0.000000000        21.692638397         8.605128288
Zr     0.000000000         3.610006809         8.605128288
Zr     0.000000000         7.226534843         8.605128288
Zr    10.187397957        10.843060493         8.605128288
Zr    10.187397957        14.459588051         8.605128288
Zr    10.187397957        18.076110840         8.605128288
Zr    10.187397957        21.692638397         8.605128288
Zr    10.187397957         3.610006809         8.605128288
Zr    10.187397957         7.226534843         8.605128288
Zr    15.281097412        10.843060493         8.605128288
Zr    15.281097412        14.459588051         8.605128288
Zr    15.281097412        18.076110840         8.605128288
Zr    15.281097412        21.692638397         8.605128288
Zr    15.281097412         3.610006809         8.605128288
Zr    15.281097412         7.226534843         8.605128288
Zr     5.093698978        10.843060493         8.605128288
Zr     5.093698978        14.459588051         8.605128288
Zr     5.093698978        18.076110840         8.605128288
Zr     5.093698978        21.692638397         8.605128288
Zr     5.093698978         3.610006809         8.605128288
Zr     5.093698978         7.226534843         8.605128288
Zr    12.734247208        12.655696869        10.243123055
Zr    12.734247208        16.272224426        10.243123055
Zr    12.734247208         1.806118250        10.243123055
Zr    12.734247208        19.888750076        10.243123055
Zr    12.734247208         5.422644615        10.243123055
Zr    12.734247208         9.039171219        10.243123055
Zr    17.827945709        12.655696869        10.243123055
Zr    17.827945709        16.272224426        10.243123055
Zr    17.827945709         1.806118250        10.243123055
Zr    17.827945709        19.888750076        10.243123055
Zr    17.827945709         5.422644615        10.243123055
Zr    17.827945709         9.039171219        10.243123055
Zr     2.546849728        12.655696869        10.243123055
Zr     2.546849728        16.272224426        10.243123055
Zr     2.546849728         1.806118250        10.243123055
Zr     2.546849728        19.888750076        10.243123055
Zr     2.546849728         5.422644615        10.243123055
Zr     2.546849728         9.039171219        10.243123055
Zr     7.640548706        12.655696869        10.243123055
Zr     7.640548706        16.272224426        10.243123055
Zr     7.640548706         1.806118250        10.243123055
Zr     7.640548706        19.888750076        10.243123055
Zr     7.640548706         5.422644615        10.243123055
Zr     7.640548706         9.039171219        10.243123055
O    11.467832565        10.845895767        10.300016403
O    11.467832565        14.462423325        10.300016403
O    11.467832565        18.078947067        10.300016403
O    11.467832565        21.695474625        10.300016403
O    11.467832565         3.612841845        10.300016403
O    11.467832565         7.229370117        10.300016403
O     1.280434728        10.845895767        10.300016403
O     1.280434728        14.462423325        10.300016403
O     1.280434728        18.078947067        10.300016403
O     1.280434728        21.695474625        10.300016403
O     1.280434728         3.612841845        10.300016403
O     1.280434728         7.229370117        10.300016403
O    14.000662804        10.845895767        10.300016403
O    14.000662804        14.462423325        10.300016403
O    14.000662804        18.078947067        10.300016403
O    14.000662804        21.695474625        10.300016403
O    14.000662804         3.612841845        10.300016403
O    14.000662804         7.229370117        10.300016403
O    16.561531067        10.845895767        10.300016403
O    16.561531067        14.462423325        10.300016403
O    16.561531067        18.078947067        10.300016403
O    16.561531067        21.695474625        10.300016403
O    16.561531067         3.612841845        10.300016403
O    16.561531067         7.229370117        10.300016403
O    19.094362259        10.845895767        10.300016403
O    19.094362259        14.462423325        10.300016403
O    19.094362259        18.078947067        10.300016403
O    19.094362259        21.695474625        10.300016403
O    19.094362259         3.612841845        10.300016403
O    19.094362259         7.229370117        10.300016403
O     3.813265085        10.845895767        10.300016403
O     3.813265085        14.462423325        10.300016403
O     3.813265085        18.078947067        10.300016403
O     3.813265085        21.695474625        10.300016403
O     3.813265085         3.612841845        10.300016403
O     3.813265085         7.229370117        10.300016403
O     6.374133587        10.845895767        10.300016403
O     6.374133587        14.462423325        10.300016403
O     6.374133587        18.078947067        10.300016403
O     6.374133587        21.695474625        10.300016403
O     6.374133587         3.612841845        10.300016403
O     6.374133587         7.229370117        10.300016403
O     8.906964302        10.845895767        10.300016403
O     8.906964302        14.462423325        10.300016403
O     8.906964302        18.078947067        10.300016403
O     8.906964302        21.695474625        10.300016403
O     8.906964302         3.612841845        10.300016403
O     8.906964302         7.229370117        10.300016403
O    11.453705788        12.654133797        12.073046684
O    11.453705788        16.270660400        12.073046684
O    11.453705788         1.804554939        12.073046684
O    11.453705788        19.887186050        12.073046684
O    11.453705788         5.421081543        12.073046684
O    11.453705788         9.037608147        12.073046684
O     1.266307950        12.654133797        12.073046684
O     1.266307950        16.270660400        12.073046684
O     1.266307950         1.804554939        12.073046684
O     1.266307950        19.887186050        12.073046684
O     1.266307950         5.421081543        12.073046684
O     1.266307950         9.037608147        12.073046684
O    14.014789581        12.654133797        12.073046684
O    14.014789581        16.270660400        12.073046684
O    14.014789581         1.804554939        12.073046684
O    14.014789581        19.887186050        12.073046684
O    14.014789581         5.421081543        12.073046684
O    14.014789581         9.037608147        12.073046684
O    16.547405243        12.654133797        12.073046684
O    16.547405243        16.270660400        12.073046684
O    16.547405243         1.804554939        12.073046684
O    16.547405243        19.887186050        12.073046684
O    16.547405243         5.421081543        12.073046684
O    16.547405243         9.037608147        12.073046684
O    19.108488083        12.654133797        12.073046684
O    19.108488083        16.270660400        12.073046684
O    19.108488083         1.804554939        12.073046684
O    19.108488083        19.887186050        12.073046684
O    19.108488083         5.421081543        12.073046684
O    19.108488083         9.037608147        12.073046684
O     3.827391624        12.654133797        12.073046684
O     3.827391624        16.270660400        12.073046684
O     3.827391624         1.804554939        12.073046684
O     3.827391624        19.887186050        12.073046684
O     3.827391624         5.421081543        12.073046684
O     3.827391624         9.037608147        12.073046684
O     6.360007286        12.654133797        12.073046684
O     6.360007286        16.270660400        12.073046684
O     6.360007286         1.804554939        12.073046684
O     6.360007286        19.887186050        12.073046684
O     6.360007286         5.421081543        12.073046684
O     6.360007286         9.037608147        12.073046684
O     8.921091080        12.654133797        12.073046684
O     8.921091080        16.270660400        12.073046684
O     8.921091080         1.804554939        12.073046684
O     8.921091080        19.887186050        12.073046684
O     8.921091080         5.421081543        12.073046684
O     8.921091080         9.037608147        12.073046684
Zr     0.000000000        10.843577385        12.096034050
Zr     0.000000000        14.460105896        12.096034050
Zr     0.000000000        18.076631546        12.096034050
Zr     0.000000000        21.693157196        12.096034050
Zr     0.000000000         3.610526800        12.096034050
Zr     0.000000000         7.227052212        12.096034050
Zr    10.187397957        10.843577385        12.096034050
Zr    10.187397957        14.460105896        12.096034050
Zr    10.187397957        18.076631546        12.096034050
Zr    10.187397957        21.693157196        12.096034050
Zr    10.187397957         3.610526800        12.096034050
Zr    10.187397957         7.227052212        12.096034050
Zr    15.281097412        10.843577385        12.096034050
Zr    15.281097412        14.460105896        12.096034050
Zr    15.281097412        18.076631546        12.096034050
Zr    15.281097412        21.693157196        12.096034050
Zr    15.281097412         3.610526800        12.096034050
Zr    15.281097412         7.227052212        12.096034050
Zr     5.093698978        10.843577385        12.096034050
Zr     5.093698978        14.460105896        12.096034050
Zr     5.093698978        18.076631546        12.096034050
Zr     5.093698978        21.693157196        12.096034050
Zr     5.093698978         3.610526800        12.096034050
Zr     5.093698978         7.227052212        12.096034050
Zr    12.734247208        12.655978203        13.851696014
Zr    12.734247208        16.272504807        13.851696014
Zr    12.734247208         1.806398630        13.851696014
Zr    12.734247208        19.889030457        13.851696014
Zr    12.734247208         5.422924995        13.851696014
Zr    12.734247208         9.039450645        13.851696014
Zr    17.827945709        12.655978203        13.851696014
Zr    17.827945709        16.272504807        13.851696014
Zr    17.827945709         1.806398630        13.851696014
Zr    17.827945709        19.889030457        13.851696014
Zr    17.827945709         5.422924995        13.851696014
Zr    17.827945709         9.039450645        13.851696014
Zr     2.546849728        12.655978203        13.851696014
Zr     2.546849728        16.272504807        13.851696014
Zr     2.546849728         1.806398630        13.851696014
Zr     2.546849728        19.889030457        13.851696014
Zr     2.546849728         5.422924995        13.851696014
Zr     2.546849728         9.039450645        13.851696014
Zr     7.640548706        12.655978203        13.851696014
Zr     7.640548706        16.272504807        13.851696014
Zr     7.640548706         1.806398630        13.851696014
Zr     7.640548706        19.889030457        13.851696014
Zr     7.640548706         5.422924995        13.851696014
Zr     7.640548706         9.039450645        13.851696014
O    11.467281342        10.845817566        13.851703644
O    11.467281342        14.462346077        13.851703644
O    11.467281342        18.078868866        13.851703644
O    11.467281342        21.695396423        13.851703644
O    11.467281342         3.612764359        13.851703644
O    11.467281342         7.229292393        13.851703644
O     1.279882789        10.845817566        13.851703644
O     1.279882789        14.462346077        13.851703644
O     1.279882789        18.078868866        13.851703644
O     1.279882789        21.695396423        13.851703644
O     1.279882789         3.612764359        13.851703644
O     1.279882789         7.229292393        13.851703644
O    14.001214981        10.845817566        13.851703644
O    14.001214981        14.462346077        13.851703644
O    14.001214981        18.078868866        13.851703644
O    14.001214981        21.695396423        13.851703644
O    14.001214981         3.612764359        13.851703644
O    14.001214981         7.229292393        13.851703644
O    16.560979843        10.845817566        13.851703644
O    16.560979843        14.462346077        13.851703644
O    16.560979843        18.078868866        13.851703644
O    16.560979843        21.695396423        13.851703644
O    16.560979843         3.612764359        13.851703644
O    16.560979843         7.229292393        13.851703644
O    19.094913483        10.845817566        13.851703644
O    19.094913483        14.462346077        13.851703644
O    19.094913483        18.078868866        13.851703644
O    19.094913483        21.695396423        13.851703644
O    19.094913483         3.612764359        13.851703644
O    19.094913483         7.229292393        13.851703644
O     3.813817024        10.845817566        13.851703644
O     3.813817024        14.462346077        13.851703644
O     3.813817024        18.078868866        13.851703644
O     3.813817024        21.695396423        13.851703644
O     3.813817024         3.612764359        13.851703644
O     3.813817024         7.229292393        13.851703644
O     6.373581886        10.845817566        13.851703644
O     6.373581886        14.462346077        13.851703644
O     6.373581886        18.078868866        13.851703644
O     6.373581886        21.695396423        13.851703644
O     6.373581886         3.612764359        13.851703644
O     6.373581886         7.229292393        13.851703644
O     8.907516479        10.845817566        13.851703644
O     8.907516479        14.462346077        13.851703644
O     8.907516479        18.078868866        13.851703644
O     8.907516479        21.695396423        13.851703644
O     8.907516479         3.612764359        13.851703644
O     8.907516479         7.229292393        13.851703644
Zr     0.000000000        10.843577385        15.607395172
Zr     0.000000000        14.460105896        15.607395172
Zr     0.000000000        18.076631546        15.607395172
Zr     0.000000000        21.693157196        15.607395172
Zr     0.000000000         3.610526800        15.607395172
Zr     0.000000000         7.227052212        15.607395172
Zr    10.187397957        10.843577385        15.607395172
Zr    10.187397957        14.460105896        15.607395172
Zr    10.187397957        18.076631546        15.607395172
Zr    10.187397957        21.693157196        15.607395172
Zr    10.187397957         3.610526800        15.607395172
Zr    10.187397957         7.227052212        15.607395172
Zr    15.281097412        10.843577385        15.607395172
Zr    15.281097412        14.460105896        15.607395172
Zr    15.281097412        18.076631546        15.607395172
Zr    15.281097412        21.693157196        15.607395172
Zr    15.281097412         3.610526800        15.607395172
Zr    15.281097412         7.227052212        15.607395172
Zr     5.093698978        10.843577385        15.607395172
Zr     5.093698978        14.460105896        15.607395172
Zr     5.093698978        18.076631546        15.607395172
Zr     5.093698978        21.693157196        15.607395172
Zr     5.093698978         3.610526800        15.607395172
Zr     5.093698978         7.227052212        15.607395172
O    11.453708649        12.654133797        15.630369186
O    11.453708649        16.270660400        15.630369186
O    11.453708649         1.804554820        15.630369186
O    11.453708649        19.887186050        15.630369186
O    11.453708649         5.421081543        15.630369186
O    11.453708649         9.037607193        15.630369186
O     1.266310692        12.654133797        15.630369186
O     1.266310692        16.270660400        15.630369186
O     1.266310692         1.804554820        15.630369186
O     1.266310692        19.887186050        15.630369186
O     1.266310692         5.421081543        15.630369186
O     1.266310692         9.037607193        15.630369186
O    14.014786720        12.654133797        15.630369186
O    14.014786720        16.270660400        15.630369186
O    14.014786720         1.804554820        15.630369186
O    14.014786720        19.887186050        15.630369186
O    14.014786720         5.421081543        15.630369186
O    14.014786720         9.037607193        15.630369186
O    16.547407150        12.654133797        15.630369186
O    16.547407150        16.270660400        15.630369186
O    16.547407150         1.804554820        15.630369186
O    16.547407150        19.887186050        15.630369186
O    16.547407150         5.421081543        15.630369186
O    16.547407150         9.037607193        15.630369186
O    19.108486176        12.654133797        15.630369186
O    19.108486176        16.270660400        15.630369186
O    19.108486176         1.804554820        15.630369186
O    19.108486176        19.887186050        15.630369186
O    19.108486176         5.421081543        15.630369186
O    19.108486176         9.037607193        15.630369186
O     3.827389002        12.654133797        15.630369186
O     3.827389002        16.270660400        15.630369186
O     3.827389002         1.804554820        15.630369186
O     3.827389002        19.887186050        15.630369186
O     3.827389002         5.421081543        15.630369186
O     3.827389002         9.037607193        15.630369186
O     6.360009670        12.654133797        15.630369186
O     6.360009670        16.270660400        15.630369186